(set-logic QF_S)
(declare-fun x () String)
(declare-fun y () String)
(declare-fun z () Int)
(assert (not (= (str.replace "A" (str.replace "A" x y) "A") (str.replace "A" x (str.replace x y x)))))
(check-sat)
